100	5
25	200
10
7
13
19
26
3
5
9
16
16
12
19
23
20
8
19
2
12
17
9
11
18
29
3
6
17
16
16
9
21
27
23
11
14
8
5
8
16
31
9
5
5
7
18
16
1
27
36
30
13
10
9
14
18
2
6
7
18
28
3
13
19
10
9
20
25
25
36
6
5
15
25
9
8
18
13
14
3
23
6
26
16
11
7
41
35
26
9
15
3
1
2
22
27
20
11
12
10
9
17
35	35	0	230	0	0
41	49	151	181	10	3
35	17	40	70	10	1
55	45	106	136	10	3
55	20	139	169	10	2
15	30	24	54	10	3
25	30	89	119	10	3
20	50	71	101	10	2
10	43	85	115	10	3
55	60	87	117	10	1
30	60	114	144	10	3
20	65	57	87	10	3
50	35	53	83	10	3
30	25	149	179	10	1
15	10	32	62	10	3
30	5	51	81	10	2
10	20	65	95	10	3
5	30	147	177	10	1
20	40	77	107	10	2
15	60	66	96	10	3
45	65	116	146	10	1
45	20	52	82	10	1
45	10	87	117	10	1
55	5	58	88	10	3
65	35	143	173	10	2
65	20	156	186	10	1
45	30	122	152	10	3
35	40	27	57	10	2
41	37	29	59	10	3
64	42	53	83	10	1
40	60	61	91	10	1
31	52	40	70	10	1
35	69	131	161	10	2
53	52	27	57	10	3
65	55	107	137	10	1
63	65	133	163	10	3
2	60	41	71	10	2
20	20	124	154	10	1
5	5	73	103	10	3
60	12	34	64	10	1
40	25	75	105	10	3
42	7	87	117	10	3
24	12	25	55	10	3
23	3	122	152	10	1
11	14	59	89	10	2
6	38	29	59	10	1
2	48	107	137	10	3
8	56	41	71	10	1
13	52	155	185	10	2
6	68	98	128	10	1
47	47	114	144	10	3
49	58	78	108	10	1
27	43	42	72	10	1
37	31	85	115	10	1
57	29	130	160	10	1
63	23	126	156	10	1
53	12	120	150	10	2
32	12	91	121	10	3
36	26	180	210	10	3
21	24	17	47	10	1
17	34	152	182	10	3
12	24	66	96	10	2
24	58	48	78	10	2
27	69	34	64	10	3
15	77	63	93	10	2
62	77	49	79	10	3
49	73	117	147	10	2
67	5	73	103	10	1
56	39	132	162	10	2
37	47	40	70	10	2
37	56	168	198	10	2
57	68	67	97	10	3
47	16	25	55	10	2
44	17	68	98	10	2
46	13	139	169	10	2
49	11	59	89	10	1
49	42	63	93	10	2
53	43	169	199	10	2
61	52	86	116	10	1
57	48	82	112	10	3
56	37	168	198	10	1
55	54	84	114	10	1
15	47	45	75	10	2
14	37	34	64	10	2
11	31	91	121	10	1
16	22	81	111	10	1
4	18	84	114	10	1
28	18	83	113	10	2
26	52	64	94	10	2
26	35	166	196	10	2
31	67	85	115	10	3
15	19	150	180	10	2
22	22	18	48	10	3
18	24	169	199	10	2
26	27	90	120	10	3
25	24	29	59	10	2
22	27	125	155	10	1
25	21	123	153	10	3
19	21	48	78	10	3
20	26	73	103	10	2
18	18	165	195	10	3
45	38	0	230	5	4
22	20	0	230	5	4
27	28	0	230	5	4
10	47	0	230	5	4
57	27	0	230	5	4
1	0	0	0	0	
0	0	0	0	0	
1	0	0	0	0	
0	0	0	0	1	
0	0	1	0	0	
0	0	1	0	0	
0	0	0	1	0	
0	0	0	1	0	
0	0	0	0	0	
0	0	0	1	0	
0	0	0	1	0	
1	0	0	0	0	
0	0	0	0	0	
0	1	0	0	0	
0	1	0	0	0	
0	1	0	0	0	
0	0	0	0	0	
0	0	0	1	0	
0	0	0	1	0	
0	0	0	0	0	
0	0	0	0	0	
0	0	0	0	0	
0	0	0	0	1	
0	0	0	0	1	
0	0	0	0	0	
1	0	0	0	0	
1	0	0	0	0	
1	0	0	0	0	
0	0	0	0	0	
0	0	0	0	0	
0	0	0	0	0	
1	0	0	0	0	
1	0	0	0	0	
0	0	0	0	0	
1	0	0	0	0	
0	0	0	1	0	
0	0	0	0	0	
0	1	0	0	0	
0	0	0	0	0	
0	0	1	0	0	
0	1	0	0	0	
0	1	0	0	0	
0	0	0	0	0	
0	1	0	0	0	
0	0	0	0	0	
0	0	0	1	0	
0	0	0	0	0	
0	0	0	1	0	
0	0	0	0	0	
1	0	0	0	0	
0	0	0	0	0	
0	0	0	0	0	
0	0	0	0	0	
0	0	0	0	0	
0	0	0	0	0	
0	0	0	0	1	
0	1	0	0	0	
0	0	1	0	0	
0	0	0	0	0	
0	0	1	0	0	
0	1	0	0	0	
0	0	0	1	0	
0	0	0	1	0	
0	0	0	1	0	
1	0	0	0	0	
1	0	0	0	0	
0	0	0	0	0	
1	0	0	0	0	
1	0	0	0	0	
1	0	0	0	0	
1	0	0	0	0	
0	0	0	0	1	
0	0	0	0	1	
0	0	0	0	1	
0	0	0	0	0	
1	0	0	0	0	
1	0	0	0	0	
0	0	0	0	0	
1	0	0	0	0	
0	0	0	0	0	
0	0	0	0	0	
0	0	0	1	0	
0	0	0	1	0	
0	0	0	0	0	
0	0	0	0	0	
0	0	0	0	0	
0	1	0	0	0	
0	0	0	1	0	
0	0	1	0	0	
0	0	0	1	0	
0	1	0	0	0	
0	1	0	0	0	
0	1	0	0	0	
0	0	1	0	0	
0	0	1	0	0	
0	0	0	0	0	
0	1	0	0	0	
0	1	0	0	0	
0	1	0	0	0	
0	1	0	0	0	
